50, 668
46, 46
46, 46
17, 17
30, 30
4, 4
17, 17
42, 42
32, 32
28, 28
25, 25
3, 3
10, 10
5, 5
19, 19
28, 28
32, 32
3, 3
39, 39
33, 33
45, 45
29, 29
26, 26
35, 35
38, 38
38, 38
6, 6
46, 46
21, 21
17, 17
11, 11
10, 10
32, 32
37, 37
48, 48
36, 36
24, 24
13, 13
26, 26
15, 15
41, 41
42, 42
30, 30
20, 20
40, 40
18, 18
3, 3
38, 38
38, 38
45, 45
10, 10
